
Welcome to IBM(R) ILOG(R) CPLEX(R) Interactive Optimizer 22.1.1.0
  with Simplex, Mixed Integer & Barrier Optimizers
5725-A06 5725-A29 5724-Y48 5724-Y49 5724-Y54 5724-Y55 5655-Y21
Copyright IBM Corp. 1988, 2022.  All Rights Reserved.

Type 'help' for a list of available commands.
Type 'help' followed by a command name for more
information on commands.

CPLEX> Selected objective sense:  MINIMIZE
Selected objective  name:  00000000
Selected RHS        name:  RHS1
Selected bound      name:  BOUND
Problem 'ee.mps' read.
Read time = 0.03 sec. (3.17 ticks)
CPLEX> New value for time limit in seconds: 7200
CPLEX> New value for parallel optimization mode: -1
CPLEX> New value for default parallel thread count: 40
CPLEX> New value for mixed integer optimality gap tolerance: 1e-13
CPLEX> Version identifier: 22.1.1.0 | 2022-11-28 | 9160aff4d
CPXPARAM_Threads                                 40
CPXPARAM_Parallel                                -1
CPXPARAM_TimeLimit                               7200
CPXPARAM_MIP_Tolerances_MIPGap                   1e-13
Found incumbent of value 0.000000 after 0.00 sec. (0.31 ticks)
Tried aggregator 2 times.
MIP Presolve eliminated 181 rows and 2745 columns.
MIP Presolve modified 6090 coefficients.
Aggregator did 713 substitutions.
Reduced MIP has 3635 rows, 7835 columns, and 28930 nonzeros.
Reduced MIP has 7835 binaries, 0 generals, 0 SOSs, and 0 indicators.
Presolve time = 0.07 sec. (68.91 ticks)
Probing time = 0.03 sec. (5.32 ticks)
Tried aggregator 1 time.
Detecting symmetries...
Reduced MIP has 3635 rows, 7835 columns, and 28930 nonzeros.
Reduced MIP has 7835 binaries, 0 generals, 0 SOSs, and 0 indicators.
Presolve time = 0.03 sec. (22.00 ticks)
Probing time = 0.02 sec. (5.12 ticks)
Clique table members: 18781.
MIP emphasis: balance optimality and feasibility.
MIP search method: dynamic search.
Parallel mode: opportunistic, using up to 40 threads.
Root relaxation solution time = 0.13 sec. (111.99 ticks)

        Nodes                                         Cuts/
   Node  Left     Objective  IInf  Best Integer    Best Bound    ItCnt     Gap

*     0+    0                            0.0000  -1.54000e+13              --- 
*     0+    0                      -5.79000e+12  -1.54000e+13           165.98%
*     0+    0                      -6.00000e+12  -1.54000e+13           156.67%
      0     0  -1.53900e+13    35  -6.00000e+12  -1.53900e+13     2566  156.50%
*     0+    0                      -1.53900e+13  -1.53900e+13             0.00%
      0     0  -1.53900e+13   107  -1.53900e+13      Cuts: 53     3195    0.00%
*     0+    0                      -1.53900e+13  -1.53900e+13             0.00%
      0     0  -1.53900e+13   158  -1.53900e+13      Cuts: 75     3396    0.00%
*     0+    0                      -1.53900e+13  -1.53900e+13             0.00%
*     0+    0                      -1.53900e+13  -1.53900e+13             0.00%
*     0+    0                      -1.53900e+13  -1.53900e+13             0.00%
      0     2  -1.53900e+13   158  -1.53900e+13  -1.53900e+13     3396    0.00%
Elapsed time = 1.96 sec. (955.23 ticks, tree = 0.02 MB, solutions = 8)
    195    95  -1.53900e+13   112  -1.53900e+13  -1.53900e+13    18248    0.00%
    848   253  -1.53900e+13    32  -1.53900e+13  -1.53900e+13    38057    0.00%
   1538   283  -1.53900e+13    28  -1.53900e+13  -1.53900e+13    39987    0.00%
   2149   708  -1.53900e+13    22  -1.53900e+13  -1.53900e+13    86753    0.00%
   2791  1066  -1.53900e+13    98  -1.53900e+13  -1.53900e+13   131823    0.00%
   3374  1205  -1.53900e+13   166  -1.53900e+13  -1.53900e+13   152407    0.00%
   3955  1176  -1.53900e+13   202  -1.53900e+13  -1.53900e+13   147587    0.00%
   4511  2328  -1.53900e+13   122  -1.53900e+13  -1.53900e+13   357301    0.00%
   4884  1707  -1.53900e+13   127  -1.53900e+13  -1.53900e+13   232267    0.00%
   6108  2352  -1.53900e+13   254  -1.53900e+13  -1.53900e+13   362104    0.00%
Elapsed time = 8.24 sec. (4059.76 ticks, tree = 25.45 MB, solutions = 8)
   6843  3461  -1.53900e+13   149  -1.53900e+13  -1.53900e+13   694295    0.00%
   7531  3273  -1.53900e+13   338  -1.53900e+13  -1.53900e+13   618471    0.00%
   8471  3641  -1.53900e+13   133  -1.53900e+13  -1.53900e+13   769453    0.00%
   9370  3505        cutoff        -1.53900e+13  -1.53900e+13   853549    0.00%
  10175  3783  -1.53900e+13   139  -1.53900e+13  -1.53900e+13  1070800    0.00%
  10587  3800  -1.53900e+13   317  -1.53900e+13  -1.53900e+13  1077162    0.00%

Performing restart 1

Repeating presolve.
Tried aggregator 3 times.
MIP Presolve eliminated 421 rows and 1439 columns.
MIP Presolve modified 2037 coefficients.
Aggregator did 185 substitutions.
Reduced MIP has 2949 rows, 6192 columns, and 22207 nonzeros.
Reduced MIP has 6192 binaries, 0 generals, 0 SOSs, and 0 indicators.
Presolve time = 0.06 sec. (55.54 ticks)
Tried aggregator 2 times.
MIP Presolve eliminated 24 rows and 78 columns.
MIP Presolve modified 2 coefficients.
Aggregator did 19 substitutions.
Reduced MIP has 2906 rows, 6088 columns, and 21839 nonzeros.
Reduced MIP has 6088 binaries, 0 generals, 0 SOSs, and 0 indicators.
Presolve time = 0.04 sec. (36.76 ticks)
Tried aggregator 2 times.
MIP Presolve eliminated 6 rows and 27 columns.
Aggregator did 6 substitutions.
Reduced MIP has 2894 rows, 6053 columns, and 21713 nonzeros.
Reduced MIP has 6053 binaries, 0 generals, 0 SOSs, and 0 indicators.
Presolve time = 0.04 sec. (40.03 ticks)
Represolve time = 0.33 sec. (218.87 ticks)
  10589     0  -1.53900e+13   206  -1.53900e+13      Cuts: 40  1436680    0.00%
  10589     0  -1.53900e+13   302  -1.53900e+13      Cuts: 39  1436960    0.00%
  10589     0  -1.53900e+13   318  -1.53900e+13      Cuts: 34  1437214    0.00%
  10589     0  -1.53900e+13   274  -1.53900e+13      Cuts: 36  1437399    0.00%
  10589     0  -1.53900e+13   238  -1.53900e+13      Cuts: 28  1437624    0.00%
  10589     0  -1.53900e+13   316  -1.53900e+13      Cuts: 27  1437695    0.00%
  10589     0  -1.53900e+13   311  -1.53900e+13      Cuts: 16  1437767    0.00%
  10589     0  -1.53900e+13   292  -1.53900e+13      Cuts: 13  1437867    0.00%
  10589     0  -1.53900e+13   329  -1.53900e+13       Cuts: 9  1437929    0.00%
  10589     0  -1.53900e+13   322  -1.53900e+13      Cuts: 21  1438025    0.00%
  10589     0  -1.53900e+13   408  -1.53900e+13      Cuts: 20  1438131    0.00%
  10589     0  -1.53900e+13   330  -1.53900e+13      Cuts: 24  1438351    0.00%
  10589     0  -1.53900e+13   383  -1.53900e+13      Cuts: 17  1438527    0.00%
  10589     0  -1.53900e+13   419  -1.53900e+13      Cuts: 18  1438683    0.00%
  10589     0  -1.53900e+13   429  -1.53900e+13      Cuts: 28  1438785    0.00%
  10589    18        cutoff        -1.53900e+13  -1.53900e+13  1451262    0.00%
  12281    74  -1.53900e+13   278  -1.53900e+13  -1.53900e+13  1481471    0.00%
  15443   139        cutoff        -1.53900e+13  -1.53900e+13  1691957    0.00%
  18074   127  -1.53900e+13   194  -1.53900e+13  -1.53900e+13  1535872    0.00%
Elapsed time = 26.56 sec. (15658.92 ticks, tree = 0.54 MB, solutions = 11)
  20861   272  -1.53900e+13    32  -1.53900e+13  -1.53900e+13  1830110    0.00%
  23989   285  -1.53900e+13   174  -1.53900e+13  -1.53900e+13  1968347    0.00%
  25715   177        cutoff        -1.53900e+13  -1.53900e+13  2144018    0.00%

GUB cover cuts applied:  2
Clique cuts applied:  10
Cover cuts applied:  380
Flow cuts applied:  2
Mixed integer rounding cuts applied:  31
Zero-half cuts applied:  100
Gomory fractional cuts applied:  18

Root node processing (before b&c):
  Real time             =    1.17 sec. (941.54 ticks)
Parallel b&c, 40 threads:
  Real time             =   28.14 sec. (18255.33 ticks)
  Sync time (average)   =    4.83 sec.
  Wait time (average)   =    0.11 sec.
                          ------------
Total (root+branch&cut) =   29.31 sec. (19196.86 ticks)

Solution pool: 11 solutions saved.

MIP - Integer optimal solution:  Objective = -1.5389999288e+13
Solution time =   29.45 sec.  Iterations = 2279131  Nodes = 25919
Deterministic time = 19196.90 ticks  (651.77 ticks/sec)

CPLEX> Solution 'p12' written to file 'ee.sol'.
CPLEX> 